119 48 011 1
1
657 113 1
593 114 1
502 115 1
490 116 1
504 117 1
601 118 1
583 119 1
551 108 1
526 109 1
525 110 1
561 111 1
665 112 1
524 113 1
825 114 1
513 115 1
560 116 1
563 117 1
503 118 1
472 119 1
543 108 1
494 109 1
517 110 1
502 111 1
523 112 1
695 113 1
560 114 1
465 115 1
521 116 1
517 117 1
746 118 1
642 119 1
689 108 1
569 109 1
521 110 1
598 111 1
469 112 1
544 113 1
402 114 1
586 115 1
405 116 1
641 117 1
510 118 1
616 119 1
535 108 1
718 109 1
682 110 1
576 111 1
566 112 1
1
1
1
1
1
1
1
1
1
1
1
1
1
1
1
1
1
1
1
1
1
1
1
1
1
1
1
1
1
1
1
1
1
1
1
1
1
1
1
1
1
1
1
1
1
1
1
1
1
1
1
1
1
1
1
1
1
1
1 9 550 21 542 33 688 45 534
1 10 525 22 493 34 568 46 717
1 11 524 23 516 35 520 47 681
1 12 560 24 501 36 597 48 575
1 13 664 25 522 37 468 49 565
1 2 656 14 523 26 694 38 543
1 3 592 15 824 27 559 39 401
1 4 501 16 512 28 464 40 585
1 5 489 17 559 29 520 41 404
1 6 503 18 562 30 516 42 640
1 7 600 19 502 31 745 43 509
1 8 582 20 471 32 641 44 615
